\ LP format - for model browsing. Use MPS format to capture full model detail.
Minimize
  4 x0 - 5 x1 - x2 - 5 x3
Subject To
 constr(0): - x0 + 4 x1 + 3 x2 <= 1
 constr(1): 5 x2 - 4 x3 <= 13
 constr(2): 2 x0 - 3 x1 + 3 x2 <= 4
Bounds
 x0 <= 1
 x1 <= 3
 x2 <= 4
 x3 <= 2
Generals
 x0 x1 x2 x3
End
